\ Model final
\ LP format - for model browsing. Use MPS format to capture full model detail.
\ Signature: 0x12cd8dd91b8c19d4
Minimize
  129 t_376_0 + 53 t_125_0 + 127 t_259_0 + 110 t_270_0 + 154 t_281_0
   + 65 t_8_0 + 59 t_19_0 + 65 t_30_0 + 109 t_164_0 + 157 t_338_0
   + 102 t_87_0 + 109 t_221_0 + 113 t_232_0 + 112 t_243_0
   + 104.15 t_342_137 + 166 t_300_0 + 46 t_38_0 + 50 t_49_0 + 126 t_183_0
   + 149 t_194_0 + 118.36 t_175_5 + 116 t_251_0 + 99 t_262_0 + 47 t_11_0
   + 55 t_136_0 + 137 t_213_0 + 114 t_224_0 + 136 t_349_0 + 236 t_360_0
   + 58 t_98_0 + 93.8 t_227_1 + 38.89 t_55_56 + 168 t_155_0 + 115 t_166_0
   + 136 t_311_0 + 64 t_60_0 + 179 t_368_0 + 156 t_379_0 + 62 t_117_0
   + 96 t_128_0 + 69 t_139_0 + 111 t_273_0 + 46.54 t_62_64 + 46 t_22_0
   + 25.84 t_22_27 + 172 t_196_0 + 304 t_330_0 + 129 t_341_0 + 123 t_352_0
   + 57 t_79_0 + 87 t_90_0 + 52 t_101_0 + 119 t_235_0 + 208 t_158_0
   + 141 t_292_0 + 150 t_303_0 + 182 t_314_0 + 68 t_41_0 + 63 t_52_0
   + 212 t_186_0 + 91 t_197_0 + 225 t_371_0 + 170 t_109_0 + 83 t_120_0
   + 124 t_265_0 + 207 t_254_0 + 55 t_3_0 + 49 t_14_0 + 118 t_148_0
   + 164.02 t_314_121 + 54.82 t_229_190 + 230 t_322_0 + 133 t_333_0
   + 48 t_71_0 + 56 t_82_0 + 148 t_216_0 + 101 t_227_0 + 116.88 t_191_190
   + 153 t_284_0 + 231 t_295_0 + 78 t_33_0 + 67 t_44_0 + 120 t_167_0
   + 233 t_178_0 + 134 t_189_0 + 51.55 t_91_90 + 159 t_246_0 + 86 t_131_0
   + 109.12 t_165_2 + 71 t_63_0 + 102 t_208_0 + 194 t_344_0 + 56 t_93_0
   + 96.06 t_167_224 + 71 t_25_0 + 130.4 t_211_1 + 49.16 t_62_58
   + 118 t_150_0 + 172 t_161_0 + 158 t_306_0 + 40.58 t_24_22 + 52 t_55_0
   + 152.95 t_314_120 + 51.36 t_65_59 + 223 t_363_0 + 115 t_374_0
   + 84 t_112_0 + 49 t_123_0 + 171 t_257_0 + 114 t_268_0 + 40 t_6_0
   + 147 t_180_0 + 153 t_191_0 + 144 t_325_0 + 116 t_336_0 + 75 t_74_0
   + 72 t_85_0 + 96 t_219_0 + 61.8 t_131_134 + 175 t_142_0 + 129 t_153_0
   + 127 t_276_0 + 100 t_287_0 + 164 t_298_0 + 65 t_36_0 + 48 t_47_0
   + 186 t_181_0 + 118 t_355_0 + 45 t_104_0 + 39 t_115_0 + 168 t_238_0
   + 112 t_249_0 + 127 t_260_0 + 131 t_143_0 + 215 t_317_0 + 59 t_66_0
   + 119 t_200_0 + 138 t_211_0 + 161 t_222_0 + 99.9 t_240_36 + 55 t_134_0
   + 233 t_279_0 + 65 t_17_0 + 77 t_28_0 + 139 t_162_0 + 104 t_173_0
   + 141 t_230_0 + 127 t_241_0 + 112.05 t_259_36 + 195 t_366_0
   + 126 t_377_0 + 54 t_126_0 + 69.06 t_242_239 + 130 t_203_0
   + 90.52 t_184_225 + 200 t_328_0 + 157 t_339_0 + 71 t_77_0 + 58 t_9_0
   + 101.11 t_258_39 + 73.6 t_206_10 + 67 t_145_0 + 122 t_156_0
   + 220 t_290_0 + 53 t_39_0 + 120.77 t_239_43 + 135 t_347_0 + 235 t_358_0
   + 299 t_369_0 + 88 t_96_0 + 63 t_107_0 + 62 t_118_0 + 121 t_252_0
   + 40 t_1_0 + 136 t_175_0 + 136 t_309_0 + 208 t_320_0 + 230 t_331_0
   + 44 t_58_0 + 53 t_69_0 + 43 t_80_0 + 174 t_214_0 + 89.73 t_258_43
   + 78.88 t_206_5 + 100.8 t_198_10 + 71 t_137_0 + 129 t_271_0
   + 147 t_282_0 + 146 t_293_0 + 36.42 t_11_22 + 41 t_20_0 + 62 t_31_0
   + 169 t_205_0 + 141 t_350_0 + 89 t_88_0 + 65 t_99_0 + 118 t_233_0
   + 122 t_244_0 + 164 t_301_0 + 256 t_312_0 + 56 t_50_0 + 71 t_61_0
   + 113 t_195_0 + 94 t_206_0 + 97.95 t_156_8 + 112 t_263_0 + 101 t_274_0
   + 51 t_12_0 + 66 t_23_0 + 219 t_157_0 + 157 t_168_0 + 50.77 t_149_225
   + 127 t_225_0 + 129 t_236_0 + 106.75 t_183_3 + 241 t_361_0
   + 41.56 t_18_15 + 72 t_110_0 + 67 t_42_0 + 120 t_198_0
   + 122.24 t_230_209 + 106.2 t_180_208 + 198 t_323_0 + 43 t_72_0
   + 139 t_255_0 + 40 t_4_0 + 161 t_380_0 + 120.2 t_182_6 + 136 t_129_0
   + 76 t_140_0 + 119 t_151_0 + 120 t_285_0 + 129 t_342_0 + 117 t_353_0
   + 193 t_364_0 + 82 t_91_0 + 65 t_102_0 + 104.89 t_241_42 + 140 t_159_0
   + 131 t_170_0 + 191 t_304_0 + 176 t_315_0 + 99.8 t_147_7 + 62 t_53_0
   + 71 t_64_0 + 70.4 t_231_6 + 219 t_372_0 + 62 t_121_0 + 75 t_132_0
   + 108 t_266_0 + 113 t_277_0 + 56 t_15_0 + 53 t_26_0 + 129 t_334_0
   + 158 t_345_0 + 168 t_83_0 + 131 t_94_0 + 147 t_228_0 + 134 t_239_0
   + 155 t_122_0 + 91 t_180_207 + 113.8 t_191_207 + 236 t_296_0
   + 190 t_307_0 + 79 t_34_0 + 47 t_45_0 + 69 t_56_0 + 129 t_190_0
   + 67.46 t_355_333 + 41.08 t_66_59 + 88 t_113_0 + 121 t_247_0
   + 108 t_258_0 + 123 t_269_0 + 40 t_7_0 + 55 t_18_0 + 204 t_152_0
   + 198 t_326_0 + 72 t_75_0 + 134 t_209_0 + 96 t_220_0 + 104.9 t_260_36
   + 123 t_356_0 + 116 t_288_0 + 40 t_37_0 + 127 t_182_0 + 90 t_223_10
   + 98 t_250_0 + 94.6 t_227_7 + 131 t_375_0 + 63 t_124_0 + 77 t_135_0
   + 95.04 t_182_206 + 115 t_192_0 + 138 t_337_0 + 140 t_348_0 + 157 t_86_0
   + 48 t_97_0 + 90 t_231_0 + 141.22 t_214_194 + 96.4 t_173_4 + 178 t_154_0
   + 121 t_165_0 + 150 t_299_0 + 152 t_310_0 + 64 t_48_0 + 84 t_193_0
   + 77.04 t_193_9 + 190 t_367_0 + 115 t_378_0 + 51 t_105_0 + 63 t_116_0
   + 68 t_127_0 + 109 t_261_0 + 60 t_10_0 + 121 t_184_0 + 226 t_318_0
   + 184 t_329_0 + 139 t_340_0 + 61 t_67_0 + 66 t_78_0 + 70 t_89_0
   + 132 t_212_0 + 114 t_223_0 + 67 t_146_0 + 222 t_280_0 + 209 t_291_0
   + 74 t_29_0 + 69 t_40_0 + 137 t_174_0 + 126 t_185_0 + 107.98 t_248_38
   + 80.71 t_166_225 + 240 t_359_0 + 74 t_108_0 + 27.14 t_20_27
   + 124 t_242_0 + 218 t_253_0 + 66 t_2_0 + 119 t_147_0 + 89.39 t_240_39
   + 37.88 t_24_15 + 56 t_59_0 + 66 t_70_0 + 179 t_204_0 + 138 t_215_0
   + 129 t_272_0 + 48 t_21_0 + 136 t_177_0 + 93.8 t_210_6 + 161 t_302_0
   + 45 t_51_0 + 155 t_234_0 + 220 t_370_0 + 123 t_381_0 + 81 t_119_0
   + 164 t_264_0 + 101.2 t_165_3 + 131 t_176_0 + 137 t_187_0 + 198 t_321_0
   + 224 t_332_0 + 71 t_81_0 + 77.38 t_166_224 + 52 t_138_0 + 113 t_149_0
   + 133 t_160_0 + 186 t_283_0 + 140 t_294_0 + 75 t_32_0 + 63 t_43_0
   + 197 t_217_0 + 150 t_351_0 + 250 t_362_0 + 72 t_100_0 + 102 t_111_0
   + 135 t_245_0 + 132 t_256_0 + 63 t_5_0 + 222 t_179_0 + 177 t_313_0
   + 211 t_324_0 + 65 t_62_0 + 75 t_73_0 + 140 t_207_0 + 187 t_218_0
   + 68 t_130_0 + 166 t_275_0 + 114 t_286_0 + 61 t_13_0 + 53 t_24_0
   + 49 t_35_0 + 121 t_169_0 + 142 t_343_0 + 94 t_92_0 + 179 t_226_0
   + 178 t_237_0 + 125 t_248_0 + 129 t_373_0 + 196 t_305_0 + 48 t_54_0
   + 176 t_188_0 + 114 t_199_0 + 109 t_210_0 + 134 t_335_0 + 113 t_267_0
   + 65 t_16_0 + 170 t_172_0 + 75 t_141_0 + 109 t_229_0 + 98.25 t_258_36
   + 103.5 t_198_3 + 96.52 t_377_145 + 56.45 t_130_134 + 122 t_354_0
   + 179 t_365_0 + 50 t_103_0 + 55 t_114_0 + 180 t_171_0 + 207 t_316_0
   + 184 t_327_0 + 62 t_65_0 + 48 t_76_0 + 57 t_133_0 + 67 t_144_0
   + 136 t_278_0 + 100 t_289_0 + 42 t_27_0 + 106.08 t_337_333
   + 109.2 t_198_7 + 115.6 t_156_1 + 156 t_201_0 + 217 t_346_0
   + 132 t_357_0 + 108 t_84_0 + 121 t_95_0 + 45 t_106_0 + 109 t_240_0
   + 127 t_163_0 + 218 t_297_0 + 150 t_308_0 + 226 t_319_0 + 36.29 t_14_20
   + 65 t_46_0 + 60 t_57_0 + 47 t_68_0 + 120 t_202_0
Subject To
 cap_NA1013: - 0.18 t_227_1 - 0.19 t_211_1 + t_1_0 - 0.16 t_156_1 >= -113
 cap_NA1041: - 0.18 t_165_2 + t_2_0 >= -94
 cap_NA1070: t_3_0 - 0.35 t_183_3 - 0.36 t_165_3 - 0.3 t_198_3 >= -120
 cap_NA1099: t_4_0 - 0.19 t_173_4 >= -122
 cap_NA1140: - 0.28 t_175_5 - 0.24 t_206_5 + t_5_0 >= -89
 cap_NA1156: t_6_0 - 0.17 t_182_6 - 0.49 t_231_6 - 0.38 t_210_6 >= -116
 cap_NA1185: - 0.48 t_147_7 + t_7_0 - 0.16 t_227_7 - 0.27 t_198_7 >= -100
 cap_NA1226: t_8_0 - 0.37 t_156_8 >= -142
 cap_NA1257: t_9_0 - 0.12 t_193_9 >= -132
 cap_NA1277: - 0.34 t_206_10 - 0.32 t_198_10 - 0.4 t_223_10 + t_10_0
   >= -147
 cap_NA1303: t_11_0 + t_155_0 + t_148_0 + t_150_0 + t_153_0 + t_11_22
   + t_149_225 + t_151_0 + t_147_7 + t_152_0 + t_154_0 + t_147_0 + t_149_0
   >= 219
 cap_NA1338: t_158_0 + t_161_0 + t_162_0 + t_156_0 + t_156_8 + t_12_0
   + t_157_0 + t_159_0 + t_160_0 + t_156_1 >= 523
 cap_NA1376: t_164_0 + t_13_0 + t_163_0 >= 24
 cap_NA1391: t_166_0 + t_14_0 + t_167_0 + t_165_2 + t_167_224 + t_168_0
   + t_170_0 + t_165_0 + t_166_225 + t_165_3 + t_166_224 + t_169_0
   + t_172_0 + t_171_0 + t_14_20 >= 168
 cap_NA1423: t_173_0 - 0.24 t_18_15 + t_15_0 + t_173_4 - 0.27 t_24_15
   >= 17
 cap_NA1470: t_175_5 + t_178_0 + t_180_0 + t_181_0 + t_175_0 + t_180_208
   + t_180_207 + t_174_0 + t_177_0 + t_176_0 + t_179_0 + t_16_0 >= 283
 cap_NA1490: t_17_0 >= 28
 cap_NA1520: t_183_0 + t_186_0 + t_184_225 + t_183_3 + t_18_15 + t_182_6
   + t_18_0 + t_182_0 + t_182_206 + t_184_0 + t_185_0 + t_187_0 + t_188_0
   >= 222
 cap_NA1556: t_19_0 - 0.42 t_229_190 + 0.72 t_191_190 + t_189_0 + t_191_0
   + t_191_207 + t_190_0 + t_192_0 >= 82
 cap_NA1574: t_194_0 + t_196_0 + t_20_0 + t_195_0 - 0.22 t_214_194
   + t_193_0 + t_193_9 + t_20_27 - 0.31 t_14_20 >= 16
 cap_NA1609: t_197_0 + t_200_0 + t_203_0 + t_198_10 + t_205_0 + t_198_0
   + t_204_0 + t_21_0 + t_199_0 + t_198_3 + t_198_7 + t_201_0 + t_202_0
   >= 217
 cap_NA1634: t_22_0 + t_22_27 + t_208_0 - 0.27 t_24_22 + t_206_10 + t_206_5
   - 0.23 t_11_22 + t_206_0 - 0.14 t_230_209 - 0.4 t_180_208
   - 0.4 t_180_207 - 0.28 t_191_207 + t_209_0 - 0.34 t_182_206 + t_207_0
   >= 21
 cap_NA1670: t_213_0 + t_216_0 + t_211_1 + t_211_0 + t_214_0 + t_23_0
   + t_214_194 + t_212_0 + t_215_0 + t_210_6 + t_217_0 + t_218_0 + t_210_0
   >= 166
 cap_NA1703: t_221_0 + t_24_22 + t_219_0 + t_222_0 + t_220_0 + t_24_15
   + t_24_0 >= 116
 cap_NA1721: t_224_0 - 0.21 t_167_224 + t_25_0 - 0.24 t_184_225
   - 0.49 t_149_225 + t_225_0 + t_223_10 + t_223_0 - 0.27 t_166_225
   - 0.33 t_166_224 + t_226_0 >= 55
 cap_NA1767: t_227_1 + t_229_190 + t_227_0 + t_230_0 + t_230_209 + t_26_0
   + t_228_0 + t_227_7 + t_229_0 >= 197
 cap_NA1790: - 0.48 t_22_27 + t_231_6 + t_231_0 - 0.33 t_20_27 + t_27_0
   >= -24
 cap_NA1815: t_28_0 >= -58
 cap_NA1843: t_29_0 >= 49
 cap_NA1876: t_30_0 >= -113
 cap_NA1909: t_31_0 >= -3
 cap_NA1930: t_32_0 >= -121
 cap_NA1970: t_33_0 >= -53
 cap_NA2009: t_34_0 >= -145
 cap_NA2030: t_35_0 >= -109
 cap_NA2059: t_36_0 - 0.14 t_240_36 - 0.23 t_259_36 - 0.34 t_260_36
   - 0.15 t_258_36 >= -76
 cap_NA2097: t_37_0 >= -140
 cap_NA2124: t_38_0 - 0.37 t_248_38 >= -85
 cap_NA2143: - 0.13 t_258_39 + t_39_0 - 0.37 t_240_39 >= -143
 cap_NA2186: t_40_0 >= -96
 cap_NA2201: t_41_0 >= -143
 cap_NA2236: t_42_0 - 0.33 t_241_42 >= -80
 cap_NA2277: - 0.21 t_239_43 - 0.29 t_258_43 + t_43_0 >= -93
 cap_NA2294: t_44_0 >= -149
 cap_NA2329: t_232_0 + t_235_0 + t_238_0 + t_233_0 + t_236_0 + t_45_0
   + t_234_0 + t_237_0 >= 443
 cap_NA2364: t_243_0 + t_246_0 + t_240_36 + t_241_0 + 0.59 t_242_239
   + t_239_43 + t_244_0 + t_241_42 + t_239_0 + t_247_0 + t_242_0 + t_240_39
   + t_245_0 + t_240_0 + t_46_0 >= 285
 cap_NA2395: t_47_0 >= -26
 cap_NA2428: t_48_0 + t_248_38 + t_248_0 >= 96
 cap_NA2445: t_49_0 + t_251_0 + t_254_0 + t_257_0 + t_249_0 + t_252_0
   + t_255_0 + t_250_0 + t_253_0 + t_256_0 >= 661
 cap_NA2486: t_259_0 + t_262_0 + t_260_0 + t_259_36 + t_258_39 + t_258_43
   + t_50_0 + t_263_0 + t_258_0 + t_260_36 + t_261_0 + t_264_0 + t_258_36
   >= 181
 cap_NA2515: t_51_0 >= -38
 cap_NA2543: t_52_0 + t_265_0 >= 44
 cap_NA2579: t_276_0 + t_298_0 + t_249_0 + t_364_0 + t_53_0 + t_326_0
   + t_286_0 + t_373_0 + t_308_0 >= 339
 cap_NA2592: t_374_0 + t_287_0 + t_309_0 + t_277_0 + t_250_0 + t_299_0
   + t_54_0 + t_365_0 + t_327_0 >= 372
 cap_NA2629: t_270_0 + t_55_56 + t_55_0 + t_258_39 + t_258_43 + t_258_0
   + t_337_0 + t_258_36 + t_316_0 + t_337_333 >= 137
 cap_NA2661: - 0.19 t_55_56 - 0.41 t_242_239 + t_239_43 + t_239_0 + t_56_0
   >= 22
 cap_NA2698: t_317_0 + t_347_0 + t_358_0 + t_353_0 + t_266_0 + t_57_0
   >= 93
 cap_NA2724: - 0.36 t_62_58 + t_240_36 + t_58_0 + t_240_39 + t_240_0 >= 32
 cap_NA2750: - 0.19 t_65_59 - 0.32 t_66_59 + t_59_0 >= -10
 cap_NA2780: t_300_0 + t_60_0 + t_366_0 + t_328_0 + t_288_0 + t_375_0
   + t_310_0 >= 257
 cap_NA2803: t_259_0 + t_338_0 + t_259_36 + t_271_0 + t_61_0 + t_318_0
   >= 104
 cap_NA2843: t_62_64 + t_333_0 + t_62_58 - 0.38 t_355_333 + t_348_0
   + t_359_0 + t_62_0 + t_267_0 + t_354_0 - 0.24 t_337_333 >= 135
 cap_NA2876: t_63_0 + t_260_0 + t_339_0 + t_260_36 + t_272_0 + t_319_0
   >= 138
 cap_NA2908: - 0.26 t_62_64 + t_64_0 >= -4
 cap_NA2937: t_376_0 + t_65_59 + t_241_0 + t_301_0 + t_241_42 + t_65_0
   >= 72
 cap_NA2952: t_66_0 + t_377_0 + t_242_239 + t_66_59 + t_367_0 + t_242_0
   + t_302_0 + t_377_145 >= 43
 cap_NA2996: t_349_0 + t_360_0 + t_265_0 + t_295_0 + t_355_0 + t_334_0
   + t_355_333 + t_67_0 + t_248_38 + t_248_0 >= 431
 cap_NA3018: t_243_0 + t_68_0 >= 11
 cap_NA3058: t_273_0 + t_320_0 + t_69_0 + t_261_0 + t_340_0 >= 120
 cap_NA3087: t_268_0 + t_350_0 + t_361_0 + t_296_0 + t_356_0 + t_70_0
   + t_335_0 + t_163_0 >= 246
 cap_NA3119: t_227_1 + t_311_0 + t_368_0 + t_303_0 + t_71_0 + t_227_0
   + t_206_10 + t_206_5 + t_206_0 + t_227_7 - 0.34 t_182_206 + t_378_0
   + t_329_0 + t_289_0 >= 567
 cap_NA3145: t_341_0 + t_197_0 + t_219_0 + t_274_0 + t_72_0 + t_223_10
   + t_193_0 + t_193_9 + t_223_0 + t_210_6 + t_321_0 + t_210_0 >= 324
 cap_NA3175: t_189_0 + t_73_0 >= 61
 cap_NA3190: t_322_0 + t_74_0 + t_269_0 + t_351_0 + t_362_0 + t_357_0
   >= 49
 cap_NA3221: t_165_2 + t_211_1 + t_211_0 + t_198_10 + t_198_0 + t_182_6
   + t_147_7 + t_75_0 + t_182_0 + t_182_206 + t_165_0 + t_174_0 + t_147_0
   + t_165_3 + t_198_3 + t_198_7 >= 169
 cap_NA3268: t_164_0 + t_352_0 + t_363_0 + t_325_0 + t_336_0 + t_173_0
   + t_285_0 + t_231_6 + t_231_0 + t_173_4 + t_76_0 + t_297_0 >= 354
 cap_NA3289: t_183_0 + t_175_5 + t_148_0 + t_77_0 + t_156_0 + t_175_0
   + t_156_8 + t_183_3 + t_278_0 + t_156_1 >= 153
 cap_NA3316: t_232_0 + t_251_0 + t_166_0 + t_184_225 + t_149_225 + t_184_0
   + t_78_0 + t_212_0 + t_166_225 + t_176_0 + t_166_224 + t_149_0 + t_199_0
   >= 100
 cap_NA3346: t_79_0 + t_244_0 >= 33
 cap_NA3375: t_342_137 + t_262_0 + t_224_0 - 0.21 t_167_224 + t_80_0
   + t_323_0 + t_342_0 + t_220_0 - 0.33 t_166_224 >= 82
 cap_NA3401: t_213_0 + t_167_0 + t_167_224 + t_150_0 + t_200_0 + t_252_0
   + t_233_0 + t_185_0 + t_177_0 + t_81_0 >= 219
 cap_NA3432: t_221_0 + t_82_0 - 0.24 t_184_225 + t_263_0 - 0.49 t_149_225
   + t_225_0 - 0.27 t_166_225 + t_324_0 + t_343_0 >= 171
 cap_NA3475: t_330_0 + t_178_0 + t_279_0 + t_290_0 + t_369_0 + t_312_0
   + t_157_0 + t_83_0 + t_253_0 >= 567
 cap_NA3508: t_194_0 + t_344_0 + t_222_0 + t_214_0 + t_168_0
   + 0.78 t_214_194 + t_234_0 + t_264_0 + t_275_0 + t_226_0 + t_201_0
   + t_84_0 >= 434
 cap_NA3527: t_235_0 + t_85_0 + t_195_0 + t_151_0 + t_345_0 + t_215_0
   + t_169_0 + t_202_0 >= 559
 cap_NA3557: t_158_0 + t_186_0 + t_254_0 + t_152_0 + t_86_0 + t_280_0
   + t_291_0 + t_179_0 >= 395
 cap_NA3590: t_87_0 >= -48
 cap_NA3613: t_281_0 + t_379_0 + t_292_0 + t_88_0 + t_255_0 + t_159_0
   + t_304_0 + t_370_0 + t_313_0 >= 497
 cap_NA3645: - 0.42 t_229_190 - 0.28 t_191_190 + t_190_0 + t_89_0 + t_245_0
   >= 6
 cap_NA3679: t_90_0 - 0.35 t_91_90 >= -4
 cap_NA3715: t_216_0 + t_91_90 + t_180_0 + t_153_0 + t_203_0 + t_282_0
   + t_236_0 + t_180_208 + t_91_0 + t_170_0 + t_180_207 + t_187_0 + t_160_0
   + t_256_0 >= 284
 cap_NA3745: t_314_0 + t_371_0 + t_314_121 + t_191_190 + t_246_0
   + t_314_120 + t_191_0 + t_331_0 + t_293_0 + t_380_0 + t_228_0
   - 0.4 t_180_207 + 0.72 t_191_207 + t_207_0 + t_92_0 + t_305_0 >= 666
 cap_NA3762: t_229_190 + t_208_0 + t_93_0 + t_306_0 - 0.4 t_180_208
   + t_247_0 + t_192_0 + t_381_0 + t_229_0 >= 287
 cap_NA3794: t_196_0 + t_94_0 + t_154_0 + t_204_0 + t_217_0 + t_237_0
   + t_171_0 + t_346_0 >= 201
 cap_NA3821: t_155_0 + t_161_0 + t_257_0 + t_181_0 + t_238_0 + t_205_0
   + t_283_0 + t_218_0 + t_188_0 + t_172_0 + t_95_0 >= 190
 cap_NA3867: t_284_0 + t_162_0 + t_230_0 + t_96_0 + 0.86 t_230_209
   + t_315_0 + t_372_0 + t_307_0 + t_209_0 + t_332_0 + t_294_0 >= 299
 cap_NA3883: t_268_0 + t_266_0 + t_269_0 + t_97_0 + t_267_0 >= 155
 cap_NA3923: t_270_0 + t_98_0 + t_273_0 + t_271_0 + t_274_0 + t_272_0
   + t_275_0 >= 181
 cap_NA3942: t_281_0 + t_284_0 + t_276_0 + t_279_0 + t_282_0 + t_99_0
   + t_277_0 + t_280_0 + t_283_0 + t_278_0 >= 202
 cap_NA3985: t_285_0 + t_100_0 >= 75
 cap_NA4005: t_101_0 + t_292_0 + t_287_0 + t_290_0 + t_293_0 + t_288_0
   + t_291_0 + t_294_0 + t_286_0 + t_289_0 >= 272
 cap_NA4043: t_102_0 >= 46
 cap_NA4077: t_103_0 >= 14
 cap_NA4095: t_104_0 >= 3
 cap_NA4121: t_105_0 >= 72
 cap_NA4161: t_106_0 >= -103
 cap_NA4186: t_107_0 >= -35
 cap_NA4225: t_108_0 >= -44
 cap_NA4247: t_109_0 + t_295_0 + t_296_0 + t_297_0 >= 352
 cap_NA4270: t_110_0 >= 75
 cap_NA4314: t_300_0 + t_303_0 + t_306_0 + t_298_0 + t_301_0 + t_304_0
   + t_307_0 + t_299_0 + t_302_0 + t_111_0 + t_305_0 >= 426
 cap_NA4347: t_112_0 >= 75
 cap_NA4380: t_311_0 + t_314_0 + t_314_121 + t_314_120 + t_309_0 + t_312_0
   + t_315_0 + t_113_0 + t_310_0 + t_313_0 + t_308_0 >= 763
 cap_NA4405: t_114_0 >= 1
 cap_NA4432: t_115_0 >= 42
 cap_NA4453: t_116_0 >= 49
 cap_NA4480: t_117_0 >= 42
 cap_NA4519: t_118_0 >= -110
 cap_NA4549: t_119_0 >= -74
 cap_NA4577: t_120_0 - 0.35 t_314_120 >= -50
 cap_NA4603: - 0.29 t_314_121 + t_121_0 >= -58
 cap_NA4644: t_322_0 + t_317_0 + t_320_0 + t_323_0 + t_122_0 + t_318_0
   + t_321_0 + t_324_0 + t_316_0 + t_319_0 >= 395
 cap_NA4677: t_123_0 >= -116
 cap_NA4692: t_124_0 >= -1
 cap_NA4737: t_125_0 >= -96
 cap_NA4753: t_126_0 >= -25
 cap_NA4788: t_127_0 >= -9
 cap_NA4823: t_128_0 + t_325_0 >= 82
 cap_NA4853: t_330_0 + t_328_0 + t_331_0 + t_129_0 + t_326_0 + t_329_0
   + t_332_0 + t_327_0 >= 496
 cap_NA4885: t_333_0 + t_336_0 + t_334_0 - 0.38 t_355_333 + t_130_0
   + t_335_0 + t_130_134 - 0.24 t_337_333 >= 106
 cap_NA4904: t_338_0 + t_342_137 + t_341_0 + t_131_0 + t_344_0 + t_131_134
   + t_339_0 + t_342_0 + t_345_0 + t_337_0 + t_340_0 + t_343_0 + t_337_333
   + t_346_0 >= 576
 cap_NA4937: t_349_0 + t_352_0 + t_347_0 + t_350_0 + t_132_0 + t_348_0
   + t_351_0 >= 118
 cap_NA4974: t_355_0 + t_353_0 + t_355_333 + t_356_0 + t_354_0 + t_133_0
   + t_357_0 >= 137
 cap_NA5002: - 0.44 t_131_134 + t_134_0 - 0.21 t_130_134 >= -44
 cap_NA5030: t_135_0 >= -42
 cap_NA5069: t_136_0 >= -128
 cap_NA5084: - 0.35 t_342_137 + t_137_0 >= 0
 cap_NA5126: t_138_0 >= -123
 cap_NA5159: t_139_0 >= -23
 cap_NA5170: t_140_0 >= -29
 cap_NA5217: t_141_0 >= -128
 cap_NA5246: t_360_0 + t_363_0 + t_142_0 + t_358_0 + t_361_0 + t_359_0
   + t_362_0 >= 89
 cap_NA5267: t_368_0 + t_371_0 + t_143_0 + t_366_0 + t_369_0 + t_364_0
   + t_372_0 + t_367_0 + t_370_0 + t_365_0 >= 421
 cap_NA5297: t_144_0 >= -115
 cap_NA5331: t_145_0 - 0.44 t_377_145 >= -98
 cap_NA5369: t_376_0 + t_379_0 + t_374_0 + t_377_0 + t_380_0 + t_375_0
   + t_378_0 + t_146_0 + t_381_0 + t_373_0 + t_377_145 >= 377
 demand_1: t_1_0 <= 37
 demand_2: t_2_0 <= 56
 demand_3: t_3_0 <= 30
 demand_4: t_4_0 <= 28
 demand_5: t_5_0 <= 61
 demand_6: t_6_0 <= 34
 demand_7: t_7_0 <= 50
 demand_8: t_8_0 <= 8
 demand_9: t_9_0 <= 18
 demand_10: t_10_0 <= 3
 demand_11: t_11_0 + t_11_22 <= 0
 demand_12: t_12_0 <= 38
 demand_13: t_13_0 <= 46
 demand_14: t_14_0 + t_14_20 <= 11
 demand_15: t_15_0 <= 28
 demand_16: t_16_0 <= 30
 demand_17: t_17_0 <= 73
 demand_18: t_18_15 + t_18_0 <= 57
 demand_19: t_19_0 <= 20
 demand_20: t_20_0 + t_20_27 <= 36
 demand_21: t_21_0 <= 24
 demand_22: t_22_0 + t_22_27 <= 36
 demand_23: t_23_0 <= 64
 demand_24: t_24_22 + t_24_15 + t_24_0 <= 66
 demand_25: t_25_0 <= 13
 demand_26: t_26_0 <= 37
 demand_27: t_27_0 <= 32
 demand_28: t_28_0 <= 92
 demand_29: t_29_0 <= 199
 demand_30: t_30_0 <= 37
 demand_31: t_31_0 <= 147
 demand_32: t_32_0 <= 29
 demand_33: t_33_0 <= 97
 demand_34: t_34_0 <= 5
 demand_35: t_35_0 <= 41
 demand_36: t_36_0 <= 74
 demand_37: t_37_0 <= 10
 demand_38: t_38_0 <= 65
 demand_39: t_39_0 <= 7
 demand_40: t_40_0 <= 54
 demand_41: t_41_0 <= 7
 demand_42: t_42_0 <= 70
 demand_43: t_43_0 <= 57
 demand_44: t_44_0 <= 1
 demand_45: t_45_0 <= 71
 demand_46: t_46_0 <= 6
 demand_47: t_47_0 <= 19
 demand_48: t_48_0 <= 72
 demand_49: t_49_0 <= 47
 demand_50: t_50_0 <= 8
 demand_51: t_51_0 <= 7
 demand_52: t_52_0 <= 42
 demand_53: t_53_0 <= 40
 demand_54: t_54_0 <= 69
 demand_55: t_55_56 + t_55_0 <= 34
 demand_56: t_56_0 <= 13
 demand_57: t_57_0 <= 44
 demand_58: t_58_0 <= 30
 demand_59: t_59_0 <= 35
 demand_60: t_60_0 <= 29
 demand_61: t_61_0 <= 38
 demand_62: t_62_64 + t_62_58 + t_62_0 <= 40
 demand_63: t_63_0 <= 22
 demand_64: t_64_0 <= 66
 demand_65: t_65_59 + t_65_0 <= 12
 demand_66: t_66_0 + t_66_59 <= 37
 demand_67: t_67_0 <= 20
 demand_68: t_68_0 <= 22
 demand_69: t_69_0 <= 58
 demand_70: t_70_0 <= 36
 demand_71: t_71_0 <= 26
 demand_72: t_72_0 <= 37
 demand_73: t_73_0 <= 67
 demand_74: t_74_0 <= 6
 demand_75: t_75_0 <= 31
 demand_76: t_76_0 <= 44
 demand_77: t_77_0 <= 27
 demand_78: t_78_0 <= 10
 demand_79: t_79_0 <= 61
 demand_80: t_80_0 <= 29
 demand_81: t_81_0 <= 29
 demand_82: t_82_0 <= 69
 demand_83: t_83_0 <= 64
 demand_84: t_84_0 <= 64
 demand_85: t_85_0 <= 134
 demand_86: t_86_0 <= 68
 demand_87: t_87_0 <= 102
 demand_88: t_88_0 <= 70
 demand_89: t_89_0 <= 37
 demand_90: t_90_0 <= 66
 demand_91: t_91_90 + t_91_0 <= 31
 demand_92: t_92_0 <= 6
 demand_93: t_93_0 <= 102
 demand_94: t_94_0 <= 46
 demand_95: t_95_0 <= 53
 demand_96: t_96_0 <= 73
 demand_97: t_97_0 <= 52
 demand_98: t_98_0 <= 44
 demand_99: t_99_0 <= 30
 demand_100: t_100_0 <= 45
 demand_101: t_101_0 <= 28
 demand_102: t_102_0 <= 91
 demand_103: t_103_0 <= 59
 demand_104: t_104_0 <= 48
 demand_105: t_105_0 <= 117
 demand_106: t_106_0 <= 47
 demand_107: t_107_0 <= 115
 demand_108: t_108_0 <= 106
 demand_109: t_109_0 <= 64
 demand_110: t_110_0 <= 225
 demand_111: t_111_0 <= 64
 demand_112: t_112_0 <= 225
 demand_113: t_113_0 <= 134
 demand_114: t_114_0 <= 46
 demand_115: t_115_0 <= 87
 demand_116: t_116_0 <= 94
 demand_117: t_117_0 <= 87
 demand_118: t_118_0 <= 40
 demand_119: t_119_0 <= 76
 demand_120: t_120_0 <= 100
 demand_121: t_121_0 <= 92
 demand_122: t_122_0 <= 68
 demand_123: t_123_0 <= 34
 demand_124: t_124_0 <= 149
 demand_125: t_125_0 <= 54
 demand_126: t_126_0 <= 125
 demand_127: t_127_0 <= 141
 demand_128: t_128_0 <= 102
 demand_129: t_129_0 <= 70
 demand_130: t_130_0 + t_130_134 <= 78
 demand_131: t_131_0 + t_131_134 <= 54
 demand_132: t_132_0 <= 2
 demand_133: t_133_0 <= 83
 demand_134: t_134_0 <= 26
 demand_135: t_135_0 <= 108
 demand_136: t_136_0 <= 22
 demand_137: t_137_0 <= 150
 demand_138: t_138_0 <= 27
 demand_139: t_139_0 <= 127
 demand_140: t_140_0 <= 121
 demand_141: t_141_0 <= 22
 demand_142: t_142_0 <= 46
 demand_143: t_143_0 <= 53
 demand_144: t_144_0 <= 35
 demand_145: t_145_0 <= 52
 demand_146: t_146_0 <= 73
 demand_147: t_147_7 + t_147_0 <= 8
 demand_148: t_148_0 <= 27
 demand_149: t_149_225 + t_149_0 <= 26
 demand_150: t_150_0 <= 12
 demand_151: t_151_0 <= 69
 demand_152: t_152_0 <= 46
 demand_153: t_153_0 <= 35
 demand_154: t_154_0 <= 27
 demand_155: t_155_0 <= 14
 demand_156: t_156_0 + t_156_8 + t_156_1 <= 27
 demand_157: t_157_0 <= 172
 demand_158: t_158_0 <= 60
 demand_159: t_159_0 <= 159
 demand_160: t_160_0 <= 20
 demand_161: t_161_0 <= 18
 demand_162: t_162_0 <= 74
 demand_163: t_163_0 <= 6
 demand_164: t_164_0 <= 17
 demand_165: t_165_2 + t_165_0 + t_165_3 <= 9
 demand_166: t_166_0 + t_166_225 + t_166_224 <= 17
 demand_167: t_167_0 + t_167_224 <= 22
 demand_168: t_168_0 <= 6
 demand_169: t_169_0 <= 123
 demand_170: t_170_0 <= 1
 demand_171: t_171_0 <= 3
 demand_172: t_172_0 <= 21
 demand_173: t_173_0 + t_173_4 <= 34
 demand_174: t_174_0 <= 62
 demand_175: t_175_5 + t_175_0 <= 39
 demand_176: t_176_0 <= 16
 demand_177: t_177_0 <= 26
 demand_178: t_178_0 <= 51
 demand_179: t_179_0 <= 43
 demand_180: t_180_0 + t_180_208 + t_180_207 <= 49
 demand_181: t_181_0 <= 12
 demand_182: t_182_6 + t_182_0 + t_182_206 <= 34
 demand_183: t_183_0 + t_183_3 <= 65
 demand_184: t_184_225 + t_184_0 <= 13
 demand_185: t_185_0 <= 29
 demand_186: t_186_0 <= 43
 demand_187: t_187_0 <= 5
 demand_188: t_188_0 <= 21
 demand_189: t_189_0 <= 39
 demand_190: t_190_0 <= 25
 demand_191: t_191_190 + t_191_0 + t_191_207 <= 6
 demand_192: t_192_0 <= 37
 demand_193: t_193_0 + t_193_9 <= 8
 demand_194: t_194_0 <= 17
 demand_195: t_195_0 <= 13
 demand_196: t_196_0 <= 12
 demand_197: t_197_0 <= 28
 demand_198: t_198_10 + t_198_0 + t_198_3 + t_198_7 <= 59
 demand_199: t_199_0 <= 8
 demand_200: t_200_0 <= 20
 demand_201: t_201_0 <= 17
 demand_202: t_202_0 <= 33
 demand_203: t_203_0 <= 61
 demand_204: t_204_0 <= 33
 demand_205: t_205_0 <= 4
 demand_206: t_206_10 + t_206_5 + t_206_0 <= 8
 demand_207: t_207_0 <= 33
 demand_208: t_208_0 <= 2
 demand_209: t_209_0 <= 12
 demand_210: t_210_6 + t_210_0 <= 28
 demand_211: t_211_1 + t_211_0 <= 11
 demand_212: t_212_0 <= 13
 demand_213: t_213_0 <= 21
 demand_214: t_214_0 + t_214_194 <= 36
 demand_215: t_215_0 <= 32
 demand_216: t_216_0 <= 8
 demand_217: t_217_0 <= 10
 demand_218: t_218_0 <= 13
 demand_219: t_219_0 <= 25
 demand_220: t_220_0 <= 10
 demand_221: t_221_0 <= 14
 demand_222: t_222_0 <= 71
 demand_223: t_223_10 + t_223_0 <= 58
 demand_224: t_224_0 <= 16
 demand_225: t_225_0 <= 26
 demand_226: t_226_0 <= 12
 demand_227: t_227_1 + t_227_0 + t_227_7 <= 18
 demand_228: t_228_0 <= 69
 demand_229: t_229_190 + t_229_0 <= 62
 demand_230: t_230_0 + t_230_209 <= 81
 demand_231: t_231_6 + t_231_0 <= 14
 demand_232: t_232_0 <= 13
 demand_233: t_233_0 <= 61
 demand_234: t_234_0 <= 71
 demand_235: t_235_0 <= 199
 demand_236: t_236_0 <= 36
 demand_237: t_237_0 <= 27
 demand_238: t_238_0 <= 10
 demand_239: t_239_43 + t_239_0 <= 54
 demand_240: t_240_36 + t_240_39 + t_240_0 <= 47
 demand_241: t_241_0 + t_241_42 <= 30
 demand_242: t_242_239 + t_242_0 <= 13
 demand_243: t_243_0 <= 59
 demand_244: t_244_0 <= 17
 demand_245: t_245_0 <= 14
 demand_246: t_246_0 <= 49
 demand_247: t_247_0 <= 41
 demand_248: t_248_38 + t_248_0 <= 69
 demand_249: t_249_0 <= 58
 demand_250: t_250_0 <= 73
 demand_251: t_251_0 <= 29
 demand_252: t_252_0 <= 44
 demand_253: t_253_0 <= 135
 demand_254: t_254_0 <= 120
 demand_255: t_255_0 <= 76
 demand_256: t_256_0 <= 84
 demand_257: t_257_0 <= 40
 demand_258: t_258_39 + t_258_43 + t_258_0 + t_258_36 <= 64
 demand_259: t_259_0 + t_259_36 <= 10
 demand_260: t_260_0 + t_260_36 <= 13
 demand_261: t_261_0 <= 30
 demand_262: t_262_0 <= 14
 demand_263: t_263_0 <= 29
 demand_264: t_264_0 <= 58
 demand_265: t_265_0 <= 47
 demand_266: t_266_0 <= 20
 demand_267: t_267_0 <= 45
 demand_268: t_268_0 <= 77
 demand_269: t_269_0 <= 6
 demand_270: t_270_0 <= 22
 demand_271: t_271_0 <= 21
 demand_272: t_272_0 <= 52
 demand_273: t_273_0 <= 7
 demand_274: t_274_0 <= 23
 demand_275: t_275_0 <= 57
 demand_276: t_276_0 <= 34
 demand_277: t_277_0 <= 14
 demand_278: t_278_0 <= 13
 demand_279: t_279_0 <= 27
 demand_280: t_280_0 <= 18
 demand_281: t_281_0 <= 28
 demand_282: t_282_0 <= 24
 demand_283: t_283_0 <= 54
 demand_284: t_284_0 <= 5
 demand_285: t_285_0 <= 75
 demand_286: t_286_0 <= 5
 demand_287: t_287_0 <= 35
 demand_288: t_288_0 <= 36
 demand_289: t_289_0 <= 14
 demand_290: t_290_0 <= 43
 demand_291: t_291_0 <= 67
 demand_292: t_292_0 <= 25
 demand_293: t_293_0 <= 38
 demand_294: t_294_0 <= 26
 demand_295: t_295_0 <= 224
 demand_296: t_296_0 <= 108
 demand_297: t_297_0 <= 26
 demand_298: t_298_0 <= 43
 demand_299: t_299_0 <= 23
 demand_300: t_300_0 <= 38
 demand_301: t_301_0 <= 39
 demand_302: t_302_0 <= 17
 demand_303: t_303_0 <= 130
 demand_304: t_304_0 <= 29
 demand_305: t_305_0 <= 54
 demand_306: t_306_0 <= 40
 demand_307: t_307_0 <= 19
 demand_308: t_308_0 <= 46
 demand_309: t_309_0 <= 95
 demand_310: t_310_0 <= 130
 demand_311: t_311_0 <= 199
 demand_312: t_312_0 <= 92
 demand_313: t_313_0 <= 76
 demand_314: t_314_0 + t_314_121 + t_314_120 <= 95
 demand_315: t_315_0 <= 46
 demand_316: t_316_0 <= 43
 demand_317: t_317_0 <= 13
 demand_318: t_318_0 <= 29
 demand_319: t_319_0 <= 49
 demand_320: t_320_0 <= 59
 demand_321: t_321_0 <= 113
 demand_322: t_322_0 <= 6
 demand_323: t_323_0 <= 40
 demand_324: t_324_0 <= 45
 demand_325: t_325_0 <= 130
 demand_326: t_326_0 <= 77
 demand_327: t_327_0 <= 74
 demand_328: t_328_0 <= 6
 demand_329: t_329_0 <= 76
 demand_330: t_330_0 <= 38
 demand_331: t_331_0 <= 196
 demand_332: t_332_0 <= 29
 demand_333: t_333_0 <= 37
 demand_334: t_334_0 <= 20
 demand_335: t_335_0 <= 11
 demand_336: t_336_0 <= 30
 demand_337: t_337_0 + t_337_333 <= 19
 demand_338: t_338_0 <= 51
 demand_339: t_339_0 <= 72
 demand_340: t_340_0 <= 36
 demand_341: t_341_0 <= 49
 demand_342: t_342_137 + t_342_0 <= 18
 demand_343: t_343_0 <= 33
 demand_344: t_344_0 <= 95
 demand_345: t_345_0 <= 106
 demand_346: t_346_0 <= 113
 demand_347: t_347_0 <= 5
 demand_348: t_348_0 <= 72
 demand_349: t_349_0 <= 41
 demand_350: t_350_0 <= 19
 demand_351: t_351_0 <= 31
 demand_352: t_352_0 <= 18
 demand_353: t_353_0 <= 13
 demand_354: t_354_0 <= 10
 demand_355: t_355_0 + t_355_333 <= 37
 demand_356: t_356_0 <= 34
 demand_357: t_357_0 <= 30
 demand_358: t_358_0 <= 43
 demand_359: t_359_0 <= 1
 demand_360: t_360_0 <= 43
 demand_361: t_361_0 <= 0
 demand_362: t_362_0 <= 15
 demand_363: t_363_0 <= 11
 demand_364: t_364_0 <= 52
 demand_365: t_365_0 <= 9
 demand_366: t_366_0 <= 13
 demand_367: t_367_0 <= 30
 demand_368: t_368_0 <= 51
 demand_369: t_369_0 <= 15
 demand_370: t_370_0 <= 75
 demand_371: t_371_0 <= 189
 demand_372: t_372_0 <= 4
 demand_373: t_373_0 <= 29
 demand_374: t_374_0 <= 25
 demand_375: t_375_0 <= 50
 demand_376: t_376_0 <= 61
 demand_377: t_377_0 + t_377_145 <= 16
 demand_378: t_378_0 <= 90
 demand_379: t_379_0 <= 29
 demand_380: t_380_0 <= 1
 demand_381: t_381_0 <= 73
 demand_0: <= 1e+10
Bounds
Generals
 t_376_0 t_125_0 t_259_0 t_270_0 t_281_0 t_8_0 t_19_0 t_30_0 t_164_0
 t_338_0 t_87_0 t_221_0 t_232_0 t_243_0 t_342_137 t_300_0 t_38_0 t_49_0
 t_183_0 t_194_0 t_175_5 t_251_0 t_262_0 t_11_0 t_136_0 t_213_0 t_224_0
 t_349_0 t_360_0 t_98_0 t_227_1 t_55_56 t_155_0 t_166_0 t_311_0 t_60_0
 t_368_0 t_379_0 t_117_0 t_128_0 t_139_0 t_273_0 t_62_64 t_22_0 t_22_27
 t_196_0 t_330_0 t_341_0 t_352_0 t_79_0 t_90_0 t_101_0 t_235_0 t_158_0
 t_292_0 t_303_0 t_314_0 t_41_0 t_52_0 t_186_0 t_197_0 t_371_0 t_109_0
 t_120_0 t_265_0 t_254_0 t_3_0 t_14_0 t_148_0 t_314_121 t_229_190 t_322_0
 t_333_0 t_71_0 t_82_0 t_216_0 t_227_0 t_191_190 t_284_0 t_295_0 t_33_0
 t_44_0 t_167_0 t_178_0 t_189_0 t_91_90 t_246_0 t_131_0 t_165_2 t_63_0
 t_208_0 t_344_0 t_93_0 t_167_224 t_25_0 t_211_1 t_62_58 t_150_0 t_161_0
 t_306_0 t_24_22 t_55_0 t_314_120 t_65_59 t_363_0 t_374_0 t_112_0 t_123_0
 t_257_0 t_268_0 t_6_0 t_180_0 t_191_0 t_325_0 t_336_0 t_74_0 t_85_0
 t_219_0 t_131_134 t_142_0 t_153_0 t_276_0 t_287_0 t_298_0 t_36_0 t_47_0
 t_181_0 t_355_0 t_104_0 t_115_0 t_238_0 t_249_0 t_260_0 t_143_0 t_317_0
 t_66_0 t_200_0 t_211_0 t_222_0 t_240_36 t_134_0 t_279_0 t_17_0 t_28_0
 t_162_0 t_173_0 t_230_0 t_241_0 t_259_36 t_366_0 t_377_0 t_126_0 t_242_239
 t_203_0 t_184_225 t_328_0 t_339_0 t_77_0 t_9_0 t_258_39 t_206_10 t_145_0
 t_156_0 t_290_0 t_39_0 t_239_43 t_347_0 t_358_0 t_369_0 t_96_0 t_107_0
 t_118_0 t_252_0 t_1_0 t_175_0 t_309_0 t_320_0 t_331_0 t_58_0 t_69_0 t_80_0
 t_214_0 t_258_43 t_206_5 t_198_10 t_137_0 t_271_0 t_282_0 t_293_0 t_11_22
 t_20_0 t_31_0 t_205_0 t_350_0 t_88_0 t_99_0 t_233_0 t_244_0 t_301_0
 t_312_0 t_50_0 t_61_0 t_195_0 t_206_0 t_156_8 t_263_0 t_274_0 t_12_0
 t_23_0 t_157_0 t_168_0 t_149_225 t_225_0 t_236_0 t_183_3 t_361_0 t_18_15
 t_110_0 t_42_0 t_198_0 t_230_209 t_180_208 t_323_0 t_72_0 t_255_0 t_4_0
 t_380_0 t_182_6 t_129_0 t_140_0 t_151_0 t_285_0 t_342_0 t_353_0 t_364_0
 t_91_0 t_102_0 t_241_42 t_159_0 t_170_0 t_304_0 t_315_0 t_147_7 t_53_0
 t_64_0 t_231_6 t_372_0 t_121_0 t_132_0 t_266_0 t_277_0 t_15_0 t_26_0
 t_334_0 t_345_0 t_83_0 t_94_0 t_228_0 t_239_0 t_122_0 t_180_207 t_191_207
 t_296_0 t_307_0 t_34_0 t_45_0 t_56_0 t_190_0 t_355_333 t_66_59 t_113_0
 t_247_0 t_258_0 t_269_0 t_7_0 t_18_0 t_152_0 t_326_0 t_75_0 t_209_0
 t_220_0 t_260_36 t_356_0 t_288_0 t_37_0 t_182_0 t_223_10 t_250_0 t_227_7
 t_375_0 t_124_0 t_135_0 t_182_206 t_192_0 t_337_0 t_348_0 t_86_0 t_97_0
 t_231_0 t_214_194 t_173_4 t_154_0 t_165_0 t_299_0 t_310_0 t_48_0 t_193_0
 t_193_9 t_367_0 t_378_0 t_105_0 t_116_0 t_127_0 t_261_0 t_10_0 t_184_0
 t_318_0 t_329_0 t_340_0 t_67_0 t_78_0 t_89_0 t_212_0 t_223_0 t_146_0
 t_280_0 t_291_0 t_29_0 t_40_0 t_174_0 t_185_0 t_248_38 t_166_225 t_359_0
 t_108_0 t_20_27 t_242_0 t_253_0 t_2_0 t_147_0 t_240_39 t_24_15 t_59_0
 t_70_0 t_204_0 t_215_0 t_272_0 t_21_0 t_177_0 t_210_6 t_302_0 t_51_0
 t_234_0 t_370_0 t_381_0 t_119_0 t_264_0 t_165_3 t_176_0 t_187_0 t_321_0
 t_332_0 t_81_0 t_166_224 t_138_0 t_149_0 t_160_0 t_283_0 t_294_0 t_32_0
 t_43_0 t_217_0 t_351_0 t_362_0 t_100_0 t_111_0 t_245_0 t_256_0 t_5_0
 t_179_0 t_313_0 t_324_0 t_62_0 t_73_0 t_207_0 t_218_0 t_130_0 t_275_0
 t_286_0 t_13_0 t_24_0 t_35_0 t_169_0 t_343_0 t_92_0 t_226_0 t_237_0
 t_248_0 t_373_0 t_305_0 t_54_0 t_188_0 t_199_0 t_210_0 t_335_0 t_267_0
 t_16_0 t_172_0 t_141_0 t_229_0 t_258_36 t_198_3 t_377_145 t_130_134
 t_354_0 t_365_0 t_103_0 t_114_0 t_171_0 t_316_0 t_327_0 t_65_0 t_76_0
 t_133_0 t_144_0 t_278_0 t_289_0 t_27_0 t_337_333 t_198_7 t_156_1 t_201_0
 t_346_0 t_357_0 t_84_0 t_95_0 t_106_0 t_240_0 t_163_0 t_297_0 t_308_0
 t_319_0 t_14_20 t_46_0 t_57_0 t_68_0 t_202_0
End
